33D32945 STP File, STP Format Version 1.0

SECTION Comments
Name "edge_n11_d5_s41"
Problem "Euclidean Steiner Tree Problem"
Remark "Generated with STPGenerator. 5 dimensions."
END

SECTION Graph
Nodes 11
END

SECTION Coordinates
DDDDD 0 0.6702460561 0.6702460561 0.6702460561 0.6702460561 0.6702460561
DDDDD 1 0.9116797088 0.9116797088 0.9116797088 0.9116797088 0.9116797088
DDDDD 2 0.3821349500 0.3821349500 0.3821349500 0.3821349500 0.3821349500
DDDDD 3 0.5965716008 0.5965716008 0.5965716008 0.5965716008 0.5965716008
DDDDD 4 0.2660512897 0.2660512897 0.2660512897 0.2660512897 0.2660512897
DDDDD 5 0.0223274580 0.0223274580 0.0223274580 0.0223274580 0.0223274580
DDDDD 6 0.7685739201 0.7685739201 0.7685739201 0.7685739201 0.7685739201
DDDDD 7 0.5612500564 0.5612500564 0.5612500564 0.5612500564 0.5612500564
DDDDD 8 0.4878506383 0.4878506383 0.4878506383 0.4878506383 0.4878506383
DDDDD 9 0.4318964698 0.4318964698 0.4318964698 0.4318964698 0.4318964698
DDDDD 10 0.8467889367 0.8467889367 0.8467889367 0.8467889367 0.8467889367
END
